language ESSENCE' 1.0
$ minion Nodes: 1
$ minion TotalTime: 0.000747
$ Savile Row TotalTime: 0.259
letting f_FunctionAsReln_RelationIntMatrix2 be [[true, false;int(-1,1)], 
[false, true;int(-1,1)];int(1..2)]
